84
Time limit set to 60 seconds
Running CP solver
/home/omastto1/General-Optimization-Solver/src/solvers/mmrcpsp.py:42(stream:108:6): Warning: Cumulative expression 'pulse': height is zero, expression is zero everywhere.
                                                                                               VarCumulAtom_149 = pulse(task_0_mode_0, 0)
/home/omastto1/General-Optimization-Solver/src/solvers/mmrcpsp.py:42(stream:108:1258): Warning: Cumulative expression 'pulse': height is zero, expression is zero everywhere.
                                                                                                  VarCumulAtom_198 = pulse(task_17_mode_0, 0)
/home/omastto1/General-Optimization-Solver/src/solvers/mmrcpsp.py:42(stream:109:6): Warning: Cumulative expression 'pulse': height is zero, expression is zero everywhere.
                                                                                               VarCumulAtom_202 = pulse(task_0_mode_0, 0)
/home/omastto1/General-Optimization-Solver/src/solvers/mmrcpsp.py:42(stream:109:1252): Warning: Cumulative expression 'pulse': height is zero, expression is zero everywhere.
                                                                                                  VarCumulAtom_251 = pulse(task_17_mode_0, 0)
 ! --------------------------------------------------- CP Optimizer 20.1.0.0 --
 ! Minimization problem - 69 variables, 51 constraints
 ! TimeLimit            = 60
 ! Workers              = 14
 ! LogVerbosity         = Terse
 ! Initial process time : 0.01s (0.01s extraction + 0.00s propagation)
 !  . Log search space  : 163.7 (before), 163.7 (after)
 !  . Memory usage      : 754.6 kB (before), 754.6 kB (after)
 ! Using parallel search with 14 workers.
 ! ----------------------------------------------------------------------------
 !          Best Branches  Non-fixed    W       Branch decision
                        0         69                 -
 + New bound is 19
 ! Using iterative diving.
 ! Using temporal relaxation.
 *            32       44  0.30s        1      (gap is 40.62%)
 *            31      113  0.30s        1      (gap is 38.71%)
 *            29      153  0.30s        1      (gap is 34.48%)
 *            28      225  0.30s        1      (gap is 32.14%)
 *            26      279  0.30s        1      (gap is 26.92%)
 *            25      357  0.30s        1      (gap is 24.00%)
 *            24      372  0.30s        1      (gap is 20.83%)
 *            23      403  0.30s        1      (gap is 17.39%)
 *            22      422  0.30s        1      (gap is 13.64%)
 *            21      444  0.30s        1      (gap is 9.52%)
 *            20      470  0.30s        1      (gap is 5.00%)
 *            19      488  0.30s        1      (gap is 0.00%)
 ! ----------------------------------------------------------------------------
 ! Search completed, 12 solutions found.
 ! Best objective         : 19 (optimal - effective tol. is 0)
 ! Best bound             : 19
 ! ----------------------------------------------------------------------------
 ! Number of branches     : 64110
 ! Number of fails        : 1410
 ! Total memory usage     : 9.6 MB (9.5 MB CP Optimizer + 0.1 MB Concert)
 ! Time spent in solve    : 0.34s (0.33s engine + 0.01s extraction)
 ! Search speed (br. / s) : 200343.7
 ! ----------------------------------------------------------------------------
task_0: (start=0, end=0, size=0, length=0)
Task 0 is scheduled in mode 0 from 0 to 0
task_1: (start=0, end=6, size=6, length=6)
Task 1 is scheduled in mode 2 from 0 to 6
task_2: (start=0, end=10, size=10, length=10)
Task 2 is scheduled in mode 2 from 0 to 10
task_3: (start=0, end=3, size=3, length=3)
Task 3 is scheduled in mode 1 from 0 to 3
task_4: (start=3, end=9, size=6, length=6)
Task 4 is scheduled in mode 2 from 3 to 9
task_5: (start=9, end=12, size=3, length=3)
Task 5 is scheduled in mode 0 from 9 to 12
task_6: (start=3, end=9, size=6, length=6)
Task 6 is scheduled in mode 1 from 3 to 9
task_7: (start=6, end=12, size=6, length=6)
Task 7 is scheduled in mode 0 from 6 to 12
task_8: (start=10, end=11, size=1, length=1)
Task 8 is scheduled in mode 0 from 10 to 11
task_9: (start=6, end=9, size=3, length=3)
Task 9 is scheduled in mode 0 from 6 to 9
task_10: (start=9, end=10, size=1, length=1)
Task 10 is scheduled in mode 0 from 9 to 10
task_11: (start=12, end=13, size=1, length=1)
Task 11 is scheduled in mode 0 from 12 to 13
task_12: (start=11, end=13, size=2, length=2)
Task 12 is scheduled in mode 0 from 11 to 13
task_13: (start=3, end=12, size=9, length=9)
Task 13 is scheduled in mode 2 from 3 to 12
task_14: (start=12, end=15, size=3, length=3)
Task 14 is scheduled in mode 1 from 12 to 15
task_15: (start=13, end=19, size=6, length=6)
Task 15 is scheduled in mode 0 from 13 to 19
task_16: (start=10, end=19, size=9, length=9)
Task 16 is scheduled in mode 2 from 10 to 19
task_17: (start=19, end=19, size=0, length=0)
Task 17 is scheduled in mode 0 from 19 to 19
Optimal solution found
Objective value: 19
Solution is optimal.
